(declare-fun e () String)
(declare-fun c () String)
(declare-fun g () String)
(declare-fun b () String)
(declare-fun d () String)
(declare-fun a () String)
(declare-fun h () String)
(assert (= (str.++ g c "e" c) (str.++ "c" h)))
(assert (= (str.++ "b" h) (str.++ "g" a g)))
(assert (= "eebhe" (str.++ b e "h" d "ha")))

(check-sat)
